c 
c U(n,d) graph
c graph gen seed     : 7413
c number of vertices : 50
c max number of edges: 1225
c Euclidean distance : 0.400000
c data structure     : sparse
c
c           Graph Stats
c number of vertices  : 50
c nonisolated vertices: 50
c number of edges     : 486
c edge density        : 0.396735
c max degree          : 30
c avg degree          : 19.44
c min degree          : 2
p col 50 486
e 1 50
e 1 49
e 1 48
e 1 47
e 1 46
e 1 44
e 1 43
e 1 40
e 1 38
e 1 36
e 1 32
e 1 20
e 1 18
e 1 17
e 1 11
e 1 7
e 1 4
e 2 49
e 2 46
e 2 43
e 2 42
e 2 41
e 2 40
e 2 39
e 2 38
e 2 36
e 2 35
e 2 33
e 2 32
e 2 31
e 2 30
e 2 28
e 2 27
e 2 24
e 2 23
e 2 22
e 2 21
e 2 19
e 2 17
e 2 16
e 2 14
e 2 9
e 2 8
e 2 7
e 2 5
e 3 49
e 3 46
e 3 45
e 3 39
e 3 37
e 3 36
e 3 29
e 3 27
e 3 26
e 3 25
e 3 22
e 3 19
e 3 15
e 3 13
e 3 12
e 3 10
e 3 9
e 3 7
e 3 6
e 4 50
e 4 48
e 4 47
e 4 44
e 4 40
e 4 38
e 4 36
e 4 32
e 4 20
e 4 18
e 4 17
e 4 11
e 4 7
e 5 49
e 5 46
e 5 43
e 5 42
e 5 41
e 5 40
e 5 38
e 5 35
e 5 33
e 5 32
e 5 31
e 5 30
e 5 28
e 5 27
e 5 24
e 5 23
e 5 21
e 5 19
e 5 17
e 5 16
e 5 14
e 5 8
e 6 45
e 6 39
e 6 37
e 6 36
e 6 29
e 6 27
e 6 26
e 6 25
e 6 22
e 6 19
e 6 15
e 6 13
e 6 12
e 6 10
e 6 9
e 6 7
e 7 49
e 7 46
e 7 45
e 7 44
e 7 43
e 7 42
e 7 41
e 7 40
e 7 38
e 7 37
e 7 36
e 7 32
e 7 29
e 7 27
e 7 22
e 7 20
e 7 19
e 7 17
e 7 15
e 7 12
e 7 11
e 7 9
e 7 8
e 8 49
e 8 46
e 8 45
e 8 43
e 8 42
e 8 41
e 8 40
e 8 39
e 8 38
e 8 36
e 8 33
e 8 32
e 8 31
e 8 28
e 8 27
e 8 24
e 8 23
e 8 22
e 8 21
e 8 19
e 8 17
e 8 15
e 8 14
e 8 9
e 9 49
e 9 46
e 9 45
e 9 43
e 9 42
e 9 41
e 9 40
e 9 39
e 9 38
e 9 37
e 9 36
e 9 33
e 9 32
e 9 29
e 9 28
e 9 27
e 9 24
e 9 22
e 9 19
e 9 15
e 9 13
e 9 12
e 10 45
e 10 37
e 10 29
e 10 26
e 10 25
e 10 15
e 10 13
e 10 12
e 11 50
e 11 48
e 11 47
e 11 44
e 11 40
e 11 38
e 11 36
e 11 32
e 11 20
e 11 18
e 11 17
e 12 49
e 12 46
e 12 45
e 12 44
e 12 37
e 12 36
e 12 29
e 12 27
e 12 26
e 12 25
e 12 22
e 12 19
e 12 15
e 12 13
e 13 45
e 13 37
e 13 29
e 13 26
e 13 25
e 13 22
e 13 15
e 14 49
e 14 46
e 14 43
e 14 42
e 14 41
e 14 40
e 14 38
e 14 35
e 14 33
e 14 32
e 14 31
e 14 30
e 14 28
e 14 27
e 14 24
e 14 23
e 14 21
e 14 19
e 14 17
e 14 16
e 15 49
e 15 46
e 15 45
e 15 42
e 15 39
e 15 37
e 15 36
e 15 29
e 15 28
e 15 27
e 15 26
e 15 25
e 15 24
e 15 22
e 15 19
e 16 43
e 16 41
e 16 40
e 16 38
e 16 35
e 16 31
e 16 30
e 16 21
e 16 17
e 17 49
e 17 47
e 17 46
e 17 43
e 17 41
e 17 40
e 17 38
e 17 36
e 17 32
e 17 31
e 17 30
e 17 21
e 17 20
e 17 19
e 17 18
e 18 50
e 18 48
e 18 47
e 18 40
e 18 38
e 18 34
e 18 32
e 18 30
e 18 20
e 19 49
e 19 46
e 19 45
e 19 43
e 19 42
e 19 41
e 19 40
e 19 39
e 19 38
e 19 36
e 19 33
e 19 32
e 19 31
e 19 28
e 19 27
e 19 24
e 19 23
e 19 22
e 20 50
e 20 49
e 20 48
e 20 47
e 20 43
e 20 40
e 20 38
e 20 36
e 20 32
e 20 30
e 20 21
e 21 49
e 21 46
e 21 43
e 21 41
e 21 40
e 21 38
e 21 35
e 21 32
e 21 31
e 21 30
e 22 49
e 22 46
e 22 45
e 22 43
e 22 42
e 22 41
e 22 40
e 22 39
e 22 38
e 22 37
e 22 36
e 22 32
e 22 29
e 22 28
e 22 27
e 22 26
e 22 24
e 23 46
e 23 43
e 23 42
e 23 41
e 23 39
e 23 35
e 23 33
e 23 31
e 23 28
e 23 27
e 23 24
e 24 49
e 24 46
e 24 45
e 24 43
e 24 42
e 24 41
e 24 39
e 24 38
e 24 36
e 24 33
e 24 32
e 24 31
e 24 28
e 24 27
e 25 45
e 25 37
e 25 29
e 25 26
e 26 45
e 26 44
e 26 37
e 26 29
e 27 49
e 27 46
e 27 45
e 27 43
e 27 42
e 27 41
e 27 40
e 27 39
e 27 38
e 27 36
e 27 33
e 27 32
e 27 31
e 27 28
e 28 49
e 28 46
e 28 45
e 28 43
e 28 42
e 28 41
e 28 39
e 28 38
e 28 36
e 28 33
e 28 32
e 28 31
e 29 45
e 29 37
e 29 36
e 30 43
e 30 41
e 30 40
e 30 38
e 30 35
e 30 34
e 30 31
e 31 49
e 31 46
e 31 43
e 31 42
e 31 41
e 31 40
e 31 38
e 31 35
e 31 33
e 31 32
e 32 49
e 32 46
e 32 45
e 32 43
e 32 42
e 32 41
e 32 40
e 32 38
e 32 36
e 33 46
e 33 42
e 33 41
e 33 39
e 35 43
e 35 41
e 36 49
e 36 46
e 36 45
e 36 43
e 36 42
e 36 41
e 36 40
e 36 39
e 36 38
e 36 37
e 37 45
e 37 44
e 38 49
e 38 46
e 38 43
e 38 42
e 38 41
e 38 40
e 39 49
e 39 46
e 39 45
e 39 42
e 40 49
e 40 47
e 40 46
e 40 43
e 40 42
e 40 41
e 41 49
e 41 46
e 41 43
e 41 42
e 42 49
e 42 46
e 42 45
e 42 43
e 43 49
e 43 46
e 45 49
e 45 46
e 46 49
e 47 50
e 47 48
e 48 50
